3 
4  36 
5  01 21 31 39 47 55 
6  02 09 16 23 31 41 49 56 
7  04 11 19 26 34 41 49 56 
8  04 11 19 26 34 41 49 56 
9  04 11 19 26 34 41 49 56 
10  04 11 19 26 34 41 49 56 
11  04 11 19 26 34 41 49 56 
12  04 11 19 26 34 41 49 56 
13  04 11 19 26 34 41 49 56 
14  04 11 19 26 34 41 49 56 
15  04 11 19 26 34 41 49 56 
16  04 11 19 26 34 41 49 56 
17  04 11 19 26 34 41 49 56 
18  04 11 19 26 34 41 49 56 
19  04 11 19 26 34 41 49 58 
20  13 28 43 56 
21  11 26 41 56 
22  11 26 41 56 
23  12 
0 
